100 66031

 58 230
111 200
220 38
465 644
434 263
800 53
740 231
427 802
334 852
317 484
774 417
53 978
13 201
796 216
478 292
131 173
236 380
933 911
860 616
710 412
483 935
521 49
976 211
966 566
216 616
812 40
198 404
214 650
677 699
406 639
932 321
90 94
512 428
919 129
905 948
157 476
367 318
620 767
160 498
969 311
915 812
167 868
122 674
86 47
910 567
194 764
417 137
449 229
600 883
72 21
227 753
932 474
909 447
782 8
20 820
328 360
628 541
276 678
910 703
634 956
72 532
910 400
958 954
78 643
533 299
304 127
393 843
180 363
579 661
958 471
504 199
83 602
621 61
341 414
856 547
435 437
193 749
192 828
769 772
266 39
768 195
206 537
322 935
466 835
944 843
932 304
207 430
359 471
150 158
510 32
461 947
901 241
931 240
384 84
492 929
897 580
807 668
4 912
321 346
422 622
